outputs/case_76.model.txt
liability_insurance_purchased = False
is_agent_or_notary = False
fee_standard_disclosed = False
fee_charged = False
bank_as_agent = False
bank_as_broker = True
is_broker = False
guarantee_insurance_purchased = False
license_revocation_procedures_followed = True
violate_related_regulations = False
operation_outside_license_scope = False
license_permitted = True
contact_info_provided_to_insurer = True
commission_payment_standard_included = True
agent_contract_mandatory_items_compliance = True
required_documents_submitted = True
unauthorized_use_of_advertising_content = False
failure_to_appoint_agent_upon_resignation = False
holding_positions_in_insurance_or_association = False
agency_scope_included = True
agent_broker_qualification_compliance = True
false_information_on_license_application = False
other_regulatory_requirements_included = True
board_supervisor_manager_qualifications_met = True
agent_e_policy_contact_info_provided = True
main_content_and_rights_duties_fully_explained = True
other_acts_damaging_insurance_image = False
unauthorized_insurance_business_operation = False
unauthorized_insurance_agent_operation = False
intentional_concealment_of_important_contract_info = False
violation_financial_or_business_management = False
compliance_with_laws_and_regulations = True
protection_of_elderly_consumer_rights_ensured = True
agent_prohibited_acts_compliance = True
agent_internal_operation_compliance = True
unauthorized_suspension_or_termination_of_business = False
broker_written_report_and_fee_disclosure = True
insured_and_applicant_contact_info_collected = True
improper_collection_of_money_or_benefits = False
criminal_conviction_for_fraud_or_forgery = False
financial_institution_account_included = True
related_insurance_type_compliance = True
documents_retained = True
branch_establishment_conditions_met = True
dismissal_reasons_complied = True
employment_of_unqualified_personnel = False
deposit_bond_paid = True
other_violations_of_rules_or_laws = False
bank_permitted = True
qualification_conditions_met = True
license_certificate_held = True
violate_financial_management = False
related_insurance_purchased = True
financial_and_business_management_compliant = True
agent_broker_regulations_applied = True
failure_to_report_to_agent_association = False
broker_duty_of_care_and_fidelity = True
improper_inducement_to_cancel_or_loan = False
illegal_insurance_claims = False
duty_of_care_observed = True
sale_of_unapproved_foreign_policy_discount_products = False
commission_payment_to_non_actual_agents = False
improper_commission_payment = False
unauthorized_use_of_license = False
failure_to_fill_out_recruitment_report_truthfully = False
commission_payment_method_included = True
internal_operation_rules_executed = True
education_training_completed = True
other_mandatory_requirements_complied = True
false_or_incomplete_business_or_financial_reports = False
written_analysis_report_provided = True
unauthorized_delegation_or_operation = False
application_procedures_followed = True
duty_of_fidelity_observed = True
bank_agent_broker_permit_compliance = True
unauthorized_transfer_of_application_documents = False
e_policy_issued = True
misappropriation_or_embezzlement = False
dispute_resolution_clause_included = True
breach_of_contract_liability_included = True
legal_compliance_clause_included = True
failure_to_confirm_suitability_for_elderly_clients = False
disrupt_financial_order = False
contract_party_names_included = True
agent_broker_license_required = True
improper_coercion_or_inducement = False
inducement_to_terminate_or_loan_for_clients = False
contract_termination_clause_included = True
failure_to_cancel_license_within_deadline = False
violate_business_management = False
internal_operation_rules_established = True
contract_period_included = True
penalty = False
conflict_of_interest_prevention_included = True
agent_duty_of_care_and_disclosure = True
false_or_misleading_promotion = False
prohibited_acts_clause_included = True